NAME : N20ft409.dat.7507.tour
COMMENT : Length = 7507
COMMENT : Found by LKH [Keld Helsgaun] Sat Nov 11 16:41:59 2017
TYPE : TOUR
DIMENSION : 20
TOUR_SECTION
1
19
8
20
9
15
6
14
16
7
12
10
2
5
4
17
13
18
3
11
-1
EOF
